Route #1: 1 42 19 34 39 60 20 53 15 1
Route #2: 1 17 21 4 26 47 41 12 5 22 32 50 3 1
Route #3: 1 35 7 25 59 24 48 1
Route #4: 1 44 57 13 52 10 33 11 1
Route #5: 1 56 36 51 40 16 28 18 58 38 1
Route #6: 1 43 46 6 55 37 1
Route #7: 1 8 30 14 9 27 1
Route #8: 1 23 49 2 45 1
Route #9: 1 54 31 29 1
cost: 1534
